(declare-const BAV1 Bool)
(declare-const BAV2 Bool)
(declare-const BAV3 Bool)
(declare-const BAV4 Bool)
(declare-const BAV5 Bool)
(declare-const BAV6 Bool)
(declare-const BAV7 Bool)
(declare-const BAV8 Bool)
(declare-const BAV9 Bool)
(declare-const BAV10 Bool)
(declare-const BAV11 Bool)
(declare-const BAV12 Bool)
(declare-const BAV13 Bool)
(declare-const BAV14 Bool)
(declare-const BAV15 Bool)
(declare-const BAV16 Bool)
(declare-const BAV17 Bool)
(declare-const BAV18 Bool)
(declare-const BAV19 Bool)
(declare-const BAV20 Bool)
(declare-const BAV21 Bool)
(declare-const BAV22 Bool)
(declare-const BAV23 Bool)
(declare-const BAV24 Bool)
(declare-const BAV25 Bool)
(declare-const BAV26 Bool)
(declare-const BAV27 Bool)
(declare-const BAV28 Bool)
(declare-const BAV29 Bool)
(declare-const GEN20 Int)
(declare-const GEN19 Int)
(declare-const GEN18 Int)
(declare-const GEN17 Int)
(declare-const GEN16 Int)
(declare-const GEN15 Int)
(declare-const GEN14 Int)
(declare-const GEN13 Int)
(declare-const GEN12 Int)
(declare-const GEN11 Int)
(declare-const GEN10 Int)
(declare-const GEN9 Int)
(declare-const GEN8 Int)
(declare-const GEN7 Int)
(declare-const GEN6 Int)
(declare-const GEN5 Int)
(declare-const GEN4 Int)
(declare-const GEN3 Int)
(declare-const GEN2 Int)
(declare-const GEN1 Int)
(declare-const a1 Int)
(declare-const a2 Int)
(declare-const a3 Int)
(declare-const p1 Bool)
(declare-const p2 Bool)
(assert (>= a1 GEN1))
(assert (or p1 p2))
(assert (or p1 (>= a1 GEN2)))
(assert (or p2 (>= a1 GEN3) p1 (>= a1 GEN4)))
(assert (or (>= a1 GEN5) (>= a1 GEN6) (>= a1 GEN7)))
(assert (or (not p2) (>= a1 GEN8) p1 (>= a1 GEN9)))
(assert (or (not p2) (not (>= a1 GEN10)) p1 (not (>= a1 GEN11))))
(assert (or (not p2) (not (>= a1 GEN12)) p1 (not (>= a1 GEN13)) (>= a1 GEN14)))
(assert (or (not p2) (>= a1 GEN15) p1 (>= a1 GEN16) (not (>= a1 GEN17))))
(assert (or (not p2) (>= a1 GEN18) p1 (>= a1 GEN19) (>= a1 GEN20)))
(apply occf)
(assert (= BAV1 (>= a1 GEN1)))
(assert (= BAV2 (or p1 p2)))
(assert (= BAV3 (or p1 (>= a1 GEN2))))
(assert (= BAV4 (>= a1 GEN2)))
(assert (= BAV5 (or p2 (>= a1 GEN3) p1 (>= a1 GEN4))))
(assert (= BAV6 (>= a1 GEN3)))
(assert (= BAV7 (>= a1 GEN4)))
(assert (= BAV8 (or (>= a1 GEN5) (>= a1 GEN6) (>= a1 GEN7))))
(assert (= BAV9 (>= a1 GEN5)))
(assert (= BAV10 (>= a1 GEN6)))
(assert (= BAV11 (>= a1 GEN7)))
(assert (= BAV12 (or (not p2) (>= a1 GEN8) p1 (>= a1 GEN9))))
(assert (= BAV13 (>= a1 GEN8)))
(assert (= BAV14 (>= a1 GEN9)))
(assert (= BAV15 (or (not p2) (not (>= a1 GEN10)) p1 (not (>= a1 GEN11)))))
(assert (= BAV16 (>= a1 GEN10)))
(assert (= BAV17 (>= a1 GEN11)))
(assert (= BAV18 (or (not p2) (not (>= a1 GEN12)) p1 (not (>= a1 GEN13)) (>= a1 GEN14))))
(assert (= BAV19 (>= a1 GEN12)))
(assert (= BAV20 (>= a1 GEN13)))
(assert (= BAV21 (>= a1 GEN14)))
(assert (= BAV22 (or (not p2) (>= a1 GEN15) p1 (>= a1 GEN16) (not (>= a1 GEN17)))))
(assert (= BAV23 (>= a1 GEN15)))
(assert (= BAV24 (>= a1 GEN16)))
(assert (= BAV25 (>= a1 GEN17)))
(assert (= BAV26 (or (not p2) (>= a1 GEN18) p1 (>= a1 GEN19) (>= a1 GEN20))))
(assert (= BAV27 (>= a1 GEN18)))
(assert (= BAV28 (>= a1 GEN19)))
(assert (= BAV29 (>= a1 GEN20)))